Optimal - objective value 30960.00000000
      0 C0000000           30960                      -0
      0 X0000000               1                    6192
      1 X0000001               1                    6192
      2 X0000002               1                    6192
      3 X0000003               1                    6192
      4 X0000004               1                    6192
